919829
39 31 9087
31 28 12751
28 13 6411
13 38 18675
38 29 745
29 36 16895
36 6 22446
6 9 47658
9 8 54349
8 15 26227
15 17 45489
17 14 42391
14 3 30026
3 16 71701
16 19 62440
19 27 17774
27 2 15288
2 35 10541
35 11 5412
11 10 5506
10 1 6947
1 21 6578
21 7 17005
7 18 20722
18 40 18404
40 4 28500
4 22 23621
22 24 45980
24 5 63665
5 32 3290
32 20 24202
20 30 17244
30 37 941
37 26 14546
26 33 15458
33 12 3967
12 34 39715
34 23 31609
23 25 11530
25 39 4093
